min: c;

c = 2.99071686468326 * u1_t7_h4 + 3.78911484916221 * u1_t7_h5 + 3.93584930284598 * u1_t5_h6 + 3.93584930284598 * u1_t7_h6 + 4.3918235403584 * u1_t5_h7 + 4.3918235403584 * u1_t7_h7 + 4.3918235403584 * u1_t9_h7 + 5.35657491584115 * u1_t5_h8 + 5.35657491584115 * u1_t7_h8 + 5.35657491584115 * u1_t9_h8 + 5.35657491584115 * u1_t10_h8 + 5.27440760790772 * u1_t5_h9 + 5.27440760790772 * u1_t7_h9 + 5.27440760790772 * u1_t9_h9 + 5.27440760790772 * u1_t10_h9 + 5.43940289782185 * u1_t5_h10 + 5.43940289782185 * u1_t7_h10 + 5.43940289782185 * u1_t9_h10 + 5.43940289782185 * u1_t10_h10 + 3.82322112434152 * u1_t5_h11 + 3.82322112434152 * u1_t9_h11 + 3.82322112434152 * u1_t10_h11 + 6.00344874896901 * u1_t4_h12 + 6.00344874896901 * u1_t5_h12 + 6.00344874896901 * u1_t8_h12 + 6.00344874896901 * u1_t9_h12 + 6.00344874896901 * u1_t10_h12 + 4.26308831924117 * u1_t4_h13 + 4.26308831924117 * u1_t8_h13 + 4.26308831924117 * u1_t9_h13 + 4.26308831924117 * u1_t10_h13 + 5.82226909964812 * u1_t4_h14 + 5.82226909964812 * u1_t8_h14 + 5.82226909964812 * u1_t9_h14 + 5.82226909964812 * u1_t10_h14 + 6.20644392433416 * u1_t4_h15 + 6.20644392433416 * u1_t8_h15 + 5.63174696943247 * u1_t4_h16 + 5.63174696943247 * u1_t8_h16 + 6.63198305899198 * u1_t4_h17 + 6.63198305899198 * u1_t8_h17 + 6.59344070270602 * u1_t2_h18 + 6.59344070270602 * u1_t4_h18 + 6.59344070270602 * u1_t6_h18 + 6.59344070270602 * u1_t8_h18 + 5.6437680611657 * u1_t2_h19 + 5.6437680611657 * u1_t3_h19 + 5.6437680611657 * u1_t4_h19 + 5.6437680611657 * u1_t6_h19 + 5.93098606117518 * u1_t1_h20 + 5.93098606117518 * u1_t2_h20 + 5.93098606117518 * u1_t3_h20 + 5.93098606117518 * u1_t4_h20 + 5.93098606117518 * u1_t6_h20 + 5.4217725742733 * u1_t1_h21 + 5.4217725742733 * u1_t2_h21 + 5.4217725742733 * u1_t3_h21 + 5.15051876347091 * u1_t1_h22 + 5.15051876347091 * u1_t2_h22 + 5.12666115880164 * u1_t1_h23 + 5.12666115880164 * u1_t2_h23;
0 <= u1_t1_h20 <= 1;
0 <= u1_t1_h21 <= 1;
0 <= u1_t1_h22 <= 1;
0 <= u1_t1_h23 <= 1;
u1_t1_h20 + u1_t1_h21 + u1_t1_h22 + u1_t1_h23 = 1;
0 <= u1_t2_h18 <= 1;
0 <= u1_t2_h19 <= 1;
0 <= u1_t2_h20 <= 1;
0 <= u1_t2_h21 <= 1;
0 <= u1_t2_h22 <= 1;
0 <= u1_t2_h23 <= 1;
u1_t2_h18 + u1_t2_h19 + u1_t2_h20 + u1_t2_h21 + u1_t2_h22 + u1_t2_h23 = 2;
0 <= u1_t3_h19 <= 1;
0 <= u1_t3_h20 <= 1;
0 <= u1_t3_h21 <= 1;
u1_t3_h19 + u1_t3_h20 + u1_t3_h21 = 1;
0 <= u1_t4_h12 <= 1;
0 <= u1_t4_h13 <= 1;
0 <= u1_t4_h14 <= 1;
0 <= u1_t4_h15 <= 1;
0 <= u1_t4_h16 <= 1;
0 <= u1_t4_h17 <= 1;
0 <= u1_t4_h18 <= 1;
0 <= u1_t4_h19 <= 1;
0 <= u1_t4_h20 <= 1;
u1_t4_h12 + u1_t4_h13 + u1_t4_h14 + u1_t4_h15 + u1_t4_h16 + u1_t4_h17 + u1_t4_h18 + u1_t4_h19 + u1_t4_h20 = 3;
0 <= u1_t5_h6 <= 1;
0 <= u1_t5_h7 <= 1;
0 <= u1_t5_h8 <= 1;
0 <= u1_t5_h9 <= 1;
0 <= u1_t5_h10 <= 1;
0 <= u1_t5_h11 <= 1;
0 <= u1_t5_h12 <= 1;
u1_t5_h6 + u1_t5_h7 + u1_t5_h8 + u1_t5_h9 + u1_t5_h10 + u1_t5_h11 + u1_t5_h12 = 3;
0 <= u1_t6_h18 <= 1;
0 <= u1_t6_h19 <= 1;
0 <= u1_t6_h20 <= 1;
u1_t6_h18 + u1_t6_h19 + u1_t6_h20 = 2;
0 <= u1_t7_h4 <= 1;
0 <= u1_t7_h5 <= 1;
0 <= u1_t7_h6 <= 1;
0 <= u1_t7_h7 <= 1;
0 <= u1_t7_h8 <= 1;
0 <= u1_t7_h9 <= 1;
0 <= u1_t7_h10 <= 1;
u1_t7_h4 + u1_t7_h5 + u1_t7_h6 + u1_t7_h7 + u1_t7_h8 + u1_t7_h9 + u1_t7_h10 = 2;
0 <= u1_t8_h12 <= 1;
0 <= u1_t8_h13 <= 1;
0 <= u1_t8_h14 <= 1;
0 <= u1_t8_h15 <= 1;
0 <= u1_t8_h16 <= 1;
0 <= u1_t8_h17 <= 1;
0 <= u1_t8_h18 <= 1;
u1_t8_h12 + u1_t8_h13 + u1_t8_h14 + u1_t8_h15 + u1_t8_h16 + u1_t8_h17 + u1_t8_h18 = 2;
0 <= u1_t9_h7 <= 1;
0 <= u1_t9_h8 <= 1;
0 <= u1_t9_h9 <= 1;
0 <= u1_t9_h10 <= 1;
0 <= u1_t9_h11 <= 1;
0 <= u1_t9_h12 <= 1;
0 <= u1_t9_h13 <= 1;
0 <= u1_t9_h14 <= 1;
u1_t9_h7 + u1_t9_h8 + u1_t9_h9 + u1_t9_h10 + u1_t9_h11 + u1_t9_h12 + u1_t9_h13 + u1_t9_h14 = 3;
0 <= u1_t10_h8 <= 1;
0 <= u1_t10_h9 <= 1;
0 <= u1_t10_h10 <= 1;
0 <= u1_t10_h11 <= 1;
0 <= u1_t10_h12 <= 1;
0 <= u1_t10_h13 <= 1;
0 <= u1_t10_h14 <= 1;
u1_t10_h8 + u1_t10_h9 + u1_t10_h10 + u1_t10_h11 + u1_t10_h12 + u1_t10_h13 + u1_t10_h14 = 3;
